     Program PWSCF v.6.7MaX starts on 19Aug2025 at 14:36:38

     R & G space division:  proc/nbgrp/npool/nimage =      64
     Reading input from mo2c-nacl.in

     Current dimensions of program PWSCF are:
     Max number of different atomic species (ntypx) = 10
     Max number of k-points (npk) =  40000
     Max angular momentum in pseudopotentials (lmaxx) =  3
     file Mo.pbe-spn-kjpaw.UPF: wavefunction(s)  4D renormalized
     file C.pbe-n-kjpaw.UPF: wavefunction(s)  2P renormalized
     Message from routine iosys_1drism:
     default density from MOL file(H2O.spc.MOL) is used
     Message from routine setup:
     At least one non s.o. pseudo

     Subspace diagonalization in iterative solution of the eigenvalue problem:
     a serial algorithm will be used

     Molecule # 1 for H2O read from file:
     /home/k0171/k017129/qe-6.7-rism/pseudo/SSSP_1.3.0_PBE_efficiency/H2O.spc.MOL
     Density:
         0.15050996E+02 cell^-1
         0.49533751E-02 bohr^-3
         0.55506881E+02 mol/L
         0.99997200E+00 g/cm^3
     Permittivity:
        78.355300
     Number of atoms:   3
     Atoms:
       #  atom      X (angs)      Y (angs)      Z (angs)      Q (e)         E (kcal/mol)  S (angs)
       1  O/h2o     0.00000000    0.00000000    0.00000000   -0.82000000    0.15540000    3.16600000
       2  H/h2o     0.81649000    0.57736000    0.00000000    0.41000000    0.04600000    1.00000000
       3  H/h2o    -0.81649000    0.57736000    0.00000000    0.41000000    0.04600000    1.00000000

     Molecule # 2 for Na+ read from file:
     /home/k0171/k017129/qe-6.7-rism/pseudo/SSSP_1.3.0_PBE_efficiency/Na+.aq.MOL
     Density:
         0.27115550E+00 cell^-1
         0.89238937E-04 bohr^-3
         0.10000000E+01 mol/L
         0.22989770E-01 g/cm^3
     Number of atoms:   1
     Atoms:
       #  atom      X (angs)      Y (angs)      Z (angs)      Q (e)         E (kcal/mol)  S (angs)
       1  Na        0.00000000    0.00000000    0.00000000    1.00000000    0.13010000    2.35000000

     Molecule # 3 for Cl- read from file:
     /home/k0171/k017129/qe-6.7-rism/pseudo/SSSP_1.3.0_PBE_efficiency/Cl-.aq.MOL
     Density:
         0.27115550E+00 cell^-1
         0.89238937E-04 bohr^-3
         0.10000000E+01 mol/L
         0.35452700E-01 g/cm^3
     Number of atoms:   1
     Atoms:
       #  atom      X (angs)      Y (angs)      Z (angs)      Q (e)         E (kcal/mol)  S (angs)
       1  Cl        0.00000000    0.00000000    0.00000000   -1.00000000    0.10010000    4.40000000

     1D-RISM info
     closure equation        =           KH
     temperature             =     300.0000  kelvin
     coulomb smearing radius =       2.0000  bohr
     number of solvent sites =            5
     number of grids         =         7315
     maximum of R-space      =     999.8633  bohr
     maximum of G-space      =      22.9792  bohr^-1
     number of iterations    =        10000
     convergence threshold   =      1.0E-08
     Gaussian width of bonds =       0.2582  bohr
     size of MDIIS           =           20
     step of MDIIS           =       0.5000
     number of processes     =           64

     1D-RISM Calculation

     iter. #     1  RMS(g-h-1)= 8.990E-04  nbox=  0  T= 2400.00K
     iter. #   101  RMS(g-h-1)= 1.381E-06  nbox= 20  T= 1066.67K
     iter. #   201  RMS(g-h-1)= 6.421E-06  nbox=  4  T=  474.07K
     iter. #   301  RMS(g-h-1)= 1.203E-06  nbox= 20  T=  316.05K
     iter. #   401  RMS(g-h-1)= 3.759E-07  nbox= 20  T=  300.00K
     iter. #   501  RMS(g-h-1)= 1.876E-07  nbox= 20  T=  300.00K
     iter. #   601  RMS(g-h-1)= 1.437E-07  nbox= 20  T=  300.00K
     iter. #   701  RMS(g-h-1)= 1.464E-07  nbox= 20  T=  300.00K
     iter. #   801  RMS(g-h-1)= 6.721E-08  nbox= 20  T=  300.00K
     iter. #   901  RMS(g-h-1)= 4.083E-08  nbox= 20  T=  300.00K
     iter. #  1001  RMS(g-h-1)= 2.360E-08  nbox= 20  T=  300.00K
     iter. #  1101  RMS(g-h-1)= 1.869E-08  nbox= 20  T=  300.00K
     iter. #  1201  RMS(g-h-1)= 1.302E-08  nbox= 20  T=  300.00K
     iter. #  1301  RMS(g-h-1)= 1.123E-08  nbox= 20  T=  300.00K
     iter. #  1375  RMS(g-h-1)= 9.970E-09  nbox= 20  T=  300.00K

     End of 1D-RISM calculation

     convergence has been achieved in  1375 iterations

     Chemical potential of solvation

     H2O        H2O        Closure      0.116262E+00 kcal/mol
                           GaussFluct  -0.326186E+01 kcal/mol

                Na+        Closure     -0.653002E+00 kcal/mol
                           GaussFluct  -0.691644E+00 kcal/mol

                Cl-        Closure     -0.540743E+00 kcal/mol
                           GaussFluct  -0.587560E+00 kcal/mol

                Total      Closure     -0.107748E+01 kcal/mol
                           GaussFluct  -0.454107E+01 kcal/mol

     Na+        H2O        Closure     -0.362461E+02 kcal/mol
                           GaussFluct  -0.383910E+02 kcal/mol

[...]

     Cl-        H2O        Closure     -0.300150E+02 kcal/mol
                           GaussFluct  -0.326136E+02 kcal/mol

                Na+        Closure     -0.351594E+06 kcal/mol
                           GaussFluct  -0.351594E+06 kcal/mol

                Cl-        Closure      0.351549E+06 kcal/mol
                           GaussFluct   0.351549E+06 kcal/mol

                Total      Closure     -0.747452E+02 kcal/mol
                           GaussFluct  -0.774255E+02 kcal/mol

     bravais-lattice index     =            0
     lattice parameter (alat)  =       5.5576  a.u.
     unit-cell volume          =    3038.5335 (a.u.)^3
     number of atoms/cell      =            3
     number of atomic types    =            2
     number of electrons       =        32.15
     number of Kohn-Sham states=           40
     kinetic-energy cutoff     =      60.0000  Ry
     charge density cutoff     =     480.0000  Ry
     scf convergence threshold =      1.0E-08
     mixing beta               =       0.1000
     number of iterations used =            8  plain     mixing
     Exchange-correlation= SLA  PW   PBX  PBC
                           (   1   4   3   4   0   0   0)
     Non magnetic calculation with spin-orbit

     Effective Screening Medium Method
     Boundary Conditions: Vacuum-Slab-Vacuum
     grid points for fit at edges     =        4

     celldm(1)=   5.557552  celldm(2)=   0.000000  celldm(3)=   0.000000
     celldm(4)=   0.000000  celldm(5)=   0.000000  celldm(6)=   0.000000

     crystal axes: (cart. coord. in units of alat)
               a(1) = (   1.000000   0.000000   0.000000 )
               a(2) = (  -0.497298   0.867141   0.000000 )
               a(3) = (   0.000000   0.000000  20.413798 )

     reciprocal axes: (cart. coord. in units 2 pi/alat)
               b(1) = (  1.000000  0.573492  0.000000 )
               b(2) = (  0.000000  1.153215  0.000000 )
               b(3) = (  0.000000  0.000000  0.048986 )

     PseudoPot. # 1 for Mo read from file:
     /home/k0171/k017129/qe-6.7-rism/pseudo/SSSP_1.3.0_PBE_efficiency/Mo.pbe-spn-kjpaw.UPF
     MD5 check sum: 073cefcbdae7f0c5057c602dbd397cb3
     Pseudo is Projector augmented-wave + core cor, Zval = 14.0
     Generated using "atomic" code by A. Dal Corso  (Quantum ESPRESSO distribution)
     Shape of augmentation charge: PSQ
     Using radial grid of 1229 points,  6 beta functions with:
                l(1) =   0
                l(2) =   0
                l(3) =   1
                l(4) =   1
                l(5) =   2
                l(6) =   2
     Q(r) pseudized with 0 coefficients

     PseudoPot. # 2 for C  read from file:
     /home/k0171/k017129/qe-6.7-rism/pseudo/SSSP_1.3.0_PBE_efficiency/C.pbe-n-kjpaw.UPF
     MD5 check sum: eaa142dae74271b1a7e12a15df754a5f
     Pseudo is Projector augmented-wave + core cor, Zval =  4.0
     Generated using "atomic" code by A. Dal Corso  (Quantum ESPRESSO distribution)
     Shape of augmentation charge: BESSEL
     Using radial grid of 1073 points,  4 beta functions with:
                l(1) =   0
                l(2) =   0
                l(3) =   1
                l(4) =   1
     Q(r) pseudized with 0 coefficients

     atomic species   valence    mass     pseudopotential
        Mo            14.00    95.95000     Mo( 1.00)
        C              4.00    12.01000     C ( 1.00)

     No symmetry found

   Cartesian axes

     site n.     atom                  positions (alat units)
         1           Mo  tau(   1) = (   0.0029718   0.5777594   2.0602598  )
         2           Mo  tau(   2) = (   0.4995801   0.2891058   2.9114532  )
         3           C   tau(   3) = (   0.0000000   0.0000000   2.4858259  )

     number of k points=    50  Methfessel-Paxton smearing, width (Ry)=  0.0100
                       cart. coord. in units 2pi/alat
        k(    1) = (   0.0500000   0.0863354   0.0000000), wk =   0.0200000
        k(    2) = (   0.0500000   0.2016569   0.0000000), wk =   0.0200000
        k(    3) = (   0.0500000   0.3169785   0.0000000), wk =   0.0200000
        k(    4) = (   0.0500000   0.4323000   0.0000000), wk =   0.0200000
        k(    5) = (   0.0500000   0.5476216   0.0000000), wk =   0.0200000
        k(    6) = (   0.0500000  -0.4902723   0.0000000), wk =   0.0200000
        k(    7) = (   0.0500000  -0.3749508   0.0000000), wk =   0.0200000
        k(    8) = (   0.0500000  -0.2596292   0.0000000), wk =   0.0200000
        k(    9) = (   0.0500000  -0.1443077   0.0000000), wk =   0.0200000
        k(   10) = (   0.0500000  -0.0289862   0.0000000), wk =   0.0200000
        k(   11) = (   0.1500000   0.1436846   0.0000000), wk =   0.0200000
        k(   12) = (   0.1500000   0.2590062   0.0000000), wk =   0.0200000
        k(   13) = (   0.1500000   0.3743277   0.0000000), wk =   0.0200000
        k(   14) = (   0.1500000   0.4896492   0.0000000), wk =   0.0200000
        k(   15) = (   0.1500000   0.6049708   0.0000000), wk =   0.0200000
        k(   16) = (   0.1500000  -0.4329231   0.0000000), wk =   0.0200000
        k(   17) = (   0.1500000  -0.3176016   0.0000000), wk =   0.0200000
        k(   18) = (   0.1500000  -0.2022800   0.0000000), wk =   0.0200000
        k(   19) = (   0.1500000  -0.0869585   0.0000000), wk =   0.0200000
        k(   20) = (   0.1500000   0.0283631   0.0000000), wk =   0.0200000
        k(   21) = (   0.2500000   0.2010338   0.0000000), wk =   0.0200000
        k(   22) = (   0.2500000   0.3163554   0.0000000), wk =   0.0200000
        k(   23) = (   0.2500000   0.4316769   0.0000000), wk =   0.0200000
        k(   24) = (   0.2500000   0.5469985   0.0000000), wk =   0.0200000
        k(   25) = (   0.2500000   0.6623200   0.0000000), wk =   0.0200000
        k(   26) = (   0.2500000  -0.3755739   0.0000000), wk =   0.0200000
        k(   27) = (   0.2500000  -0.2602523   0.0000000), wk =   0.0200000
        k(   28) = (   0.2500000  -0.1449308   0.0000000), wk =   0.0200000
        k(   29) = (   0.2500000  -0.0296092   0.0000000), wk =   0.0200000
        k(   30) = (   0.2500000   0.0857123   0.0000000), wk =   0.0200000
        k(   31) = (   0.3500000   0.2583831   0.0000000), wk =   0.0200000
        k(   32) = (   0.3500000   0.3737046   0.0000000), wk =   0.0200000
        k(   33) = (   0.3500000   0.4890262   0.0000000), wk =   0.0200000
        k(   34) = (   0.3500000   0.6043477   0.0000000), wk =   0.0200000
        k(   35) = (   0.3500000   0.7196692   0.0000000), wk =   0.0200000
        k(   36) = (   0.3500000  -0.3182246   0.0000000), wk =   0.0200000
        k(   37) = (   0.3500000  -0.2029031   0.0000000), wk =   0.0200000
        k(   38) = (   0.3500000  -0.0875816   0.0000000), wk =   0.0200000
        k(   39) = (   0.3500000   0.0277400   0.0000000), wk =   0.0200000
        k(   40) = (   0.3500000   0.1430615   0.0000000), wk =   0.0200000
        k(   41) = (   0.4500000   0.3157323   0.0000000), wk =   0.0200000
        k(   42) = (   0.4500000   0.4310538   0.0000000), wk =   0.0200000
        k(   43) = (   0.4500000   0.5463754   0.0000000), wk =   0.0200000
        k(   44) = (   0.4500000   0.6616969   0.0000000), wk =   0.0200000
        k(   45) = (   0.4500000   0.7770185   0.0000000), wk =   0.0200000
        k(   46) = (   0.4500000  -0.2608754   0.0000000), wk =   0.0200000
        k(   47) = (   0.4500000  -0.1455539   0.0000000), wk =   0.0200000
        k(   48) = (   0.4500000  -0.0302323   0.0000000), wk =   0.0200000
        k(   49) = (   0.4500000   0.0850892   0.0000000), wk =   0.0200000
        k(   50) = (   0.4500000   0.2004108   0.0000000), wk =   0.0200000

     Solute:
       # atom     E (kcal/mol)  S (angs)
       1  Mo      0.05600000    3.05200000    given
       2  Mo      0.05600000    3.05200000    given
       3  C       0.05600000    3.05200000    given

     Wall:
       Density =    0.01000000  bohr^-3
       E       =    0.10000000  kcal/mol
       S       =    4.00000000  angs

     Laue-RISM info
     closure equation        =           KH
     temperature             =     300.0000  kelvin
     coulomb smearing radius =       2.0000  bohr
     number of solvent sites =            4
     solvent sites           =    O/h2o   H/h2o      Na      Cl
     number of iterations    =        10000
     convergence threshold   =      1.0E-06
     convergence level       =       0.1000
     size of MDIIS           =           10
     step of MDIIS           =       0.8000
     solvent cutoff          =     240.0000  Ry
     Custom grid:   191077 G-vectors     FFT dimensions: (  27,  27, 576)

     Boundary Conditions        : Vacuum-Slab-Solvent
     unit-cell (in bohr)        : [ -56.725374  56.725374]
     expand-cell (in bohr)      : [ -56.725374 164.858117]
     solvent of right (in bohr) : [   8.469413 164.858117]
     buffer  of right (in bohr) : [   0.393926   8.469413]
     repulsive wall (in bohr)   : [  -Infinity   6.276106]
     reference of potential     : right-hand side
     #grids to fit at edges of unit-cell =    4
     Laue grid:      511 Gxy-vectors     FFT dimensions: (  27,  27,1125)

     Initial potential from superposition of free atoms

     starting charge   31.99737, renormalised to   32.15000

     negative rho (up, down):  2.588E-04 0.000E+00

     Laue-RISM Calculation

     convergence threshold    = 3.981E-03
     iter. #     1  RMS(g-h-1)= 4.036E+00  nbox=  0
     iter. #    11  RMS(g-h-1)= 9.770E-02  nbox= 10
     iter. #    21  RMS(g-h-1)= 4.854E-02  nbox= 10
     iter. #    31  RMS(g-h-1)= 2.098E-02  nbox= 10
     iter. #    41  RMS(g-h-1)= 1.322E-02  nbox= 10
     iter. #    51  RMS(g-h-1)= 9.844E-03  nbox= 10
     iter. #    61  RMS(g-h-1)= 7.948E-03  nbox= 10
     iter. #    71  RMS(g-h-1)= 6.358E-03  nbox=  7
     iter. #    81  RMS(g-h-1)= 4.973E-03  nbox= 10
     iter. #    88  RMS(g-h-1)= 3.892E-03  nbox=  8

     End of Laue-RISM calculation

[...]

     solvent charge   -0.03424, renormalised to    0.15000

     Total number of solvent (in expand-cell)
     H2O           19.278479
     Na+            0.362611
     Cl-            0.342924

     Total charge of solvent (in expand-cell)
     H2O           -0.053928 e
     Na+            0.362611 e
     Cl-           -0.342924 e
     Total         -0.034241 e

     Chemical potential of solvation (in expand-cell)
     H2O        GaussFluct   0.502711E+01 kcal/mol
     Na+        GaussFluct   0.613842E+03 kcal/mol
     Cl-        GaussFluct  -0.595551E+03 kcal/mol
     Total      GaussFluct   0.233179E+02 kcal/mol

     Starting wfcs are   60 randomized atomic wfcs
     Checking if some PAW data can be deallocated...

     Self-consistent Calculation

     iteration #  1     ecut=    60.00 Ry     beta= 0.10
     RMM-DIIS diagonalization
     ethr =  1.00E-02,  avg # of iterations =  1.9

[...]

     total energy              =    -743.25832885 Ry
     estimated scf accuracy    <      19.02617495 Ry

[...]

     total energy              =    -746.10406545 Ry
     estimated scf accuracy    <       0.00000002 Ry

     iteration #153     ecut=    60.00 Ry     beta= 0.10
     RMM-DIIS diagonalization
     ethr =  3.12E-11,  avg # of iterations =  2.7

     negative rho (up, down):  2.668E-04 0.000E+00

     Laue-RISM Calculation

     convergence threshold    = 1.000E-06
     iter. #     1  RMS(g-h-1)= 3.027E-05  nbox=  0
     iter. #    11  RMS(g-h-1)= 2.235E-06  nbox= 10
     iter. #    21  RMS(g-h-1)= 1.208E-06  nbox= 10
     iter. #    26  RMS(g-h-1)= 9.732E-07  nbox= 10

     End of Laue-RISM calculation

[...]

     solvent charge    0.15004, renormalised to    0.15000

     Total number of solvent (in expand-cell)
     H2O           19.326178
     Na+            0.490618
     Cl-            0.340609

     Total charge of solvent (in expand-cell)
     H2O            0.000031 e
     Na+            0.490618 e
     Cl-           -0.340609 e
     Total          0.150040 e

     Chemical potential of solvation (in expand-cell)
     H2O        GaussFluct   0.495182E+01 kcal/mol
     Na+        GaussFluct   0.563263E+03 kcal/mol
     Cl-        GaussFluct  -0.559903E+03 kcal/mol
     Total      GaussFluct   0.831174E+01 kcal/mol

     End of self-consistent calculation

          k = 0.0500 0.0863 0.0000 ( 23689 PWs)   bands (ev):

   -66.4449 -66.4449 -66.3710 -66.3710 -40.8635 -40.8635 -40.4124 -40.4124
   -40.1677 -40.1677 -40.1339 -40.1339 -40.1004 -40.1004 -40.0623 -40.0623
   -17.7651 -17.7651 -11.8703 -11.8703  -9.6388  -9.6388  -9.2838  -9.2838
    -7.6176  -7.6176  -6.5792  -6.5792  -6.2679  -6.2679  -5.9681  -5.9681
    -5.7080  -5.7080  -4.8637  -4.8636  -4.7416  -4.7336  -3.8015  -3.7994

[...]

          k = 0.4500 0.2004 0.0000 ( 23927 PWs)   bands (ev):

   -66.3499 -66.3499 -66.2966 -66.2966 -40.8696 -40.8696 -40.7895 -40.7895
   -40.5490 -40.5490 -40.4026 -40.4026 -40.3090 -40.3090 -40.1986 -40.1986
   -16.8637 -16.8637 -11.8646 -11.8646 -10.4915 -10.4915  -9.6059  -9.6059
    -8.8969  -8.8969  -5.7410  -5.7410  -5.4612  -5.4612  -4.6787  -4.6786
    -3.9792  -3.9791  -3.6841  -3.6839  -2.8586  -2.8564  -2.4856  -2.4805

     the Fermi energy is    -5.0795 ev

!    total energy              =    -746.10407774 Ry
     total all-electron energy =    -16272.126402 Ry
     estimated scf accuracy    <          1.4E-09 Ry
     smearing contrib. (-TS)   =       0.00014298 Ry
     internal energy E=F+TS    =    -746.10422072 Ry

     The total energy is F=E-TS. E is the sum of the following terms:
     one-electron contribution =    1289.39619066 Ry
     hartree contribution      =    -656.97364943 Ry
     xc contribution           =     -60.73615649 Ry
     ewald contribution        =    -873.88608975 Ry
     one-center paw contrib.   =    -443.93051572 Ry
     solvation energy (RISM)   =       0.02650894 Ry
     level-shifting contrib.   =      -0.00050891 Ry

     convergence has been achieved in 153 iterations

     Writing output data file ./mo2c-nacl.save/

     General routines

     Parallel routines

     RISM routines

   This run was terminated on:  14:53:34  19Aug2025

   JOB DONE.